InboundTrucks  = 12;
OutboundTrucks = 8;
InboundDoors   = 4;
OutboundDoors  = 4;
ReleaseTime    = [100,86,10,114,111,72,73,68,62,61,16,112];
UnloadTime     = [30,16,22,19,26,13,26,35,24,35,14,27];
LoadTime       = [5,11,25,21,11,10,26,15];
TransferTime   = [| 12,0,0,0,0,0,0,0 | 0,0,0,28,19,0,0,31 | 0,16,12,0,0,0,0,0 | 13,27,34,0,0,0,0,0 | 0,16,0,26,15,16,0,30 | 0,0,0,0,0,12,0,29 | 0,0,16,0,0,0,41,0 | 0,0,0,12,46,41,0,10 | 0,0,0,49,18,0,23,0 | 0,0,25,0,0,0,41,32 | 0,0,0,31,36,0,0,35 | 27,35,0,0,25,0,0,0 |];
